[[79, 88, 89, 90, 99, 98, 97, 96, 87, 86, 95, 94], [93, 92, 91, 82, 83, 73, 84, 85, 75, 76, 77, 78, 68, 67], [66, 74, 65, 64, 56, 57, 58, 59, 49, 55, 46, 47], [38, 48, 39, 40, 50, 41, 32, 31, 30, 29, 37, 28, 19, 21, 22, 20], [13, 11, 10, 2, 3, 12, 4, 14, 5, 6, 7, 8, 9], [18, 17, 16, 15, 23, 24, 25, 26, 27, 35, 36, 34, 33, 42, 43, 44], [45, 54, 53, 52, 51, 60, 61, 62, 63, 72, 71, 69, 70, 81, 80]]